--- Job allocate_miro3.gms Start 08/05/20 16:43:54 31.1.0 r55b6ce3 WEX-WEI x86 64bit/MS Windows
--- Applying:
    E:\31.1\gmsprmNT.txt
--- GAMS Parameters defined
    Input C:\Users\hasee\Documents\GitHub\GAMS-MIRO\Allocate\allocate_miro3.gms
    ScrDir C:\Users\hasee\Documents\GitHub\GAMS-MIRO\Allocate\225a\
    SysDir E:\31.1\
    CurDir C:\Users\hasee\Documents\GitHub\GAMS-MIRO\Allocate\
    LogOption 3
    Trace C:\Users\hasee\Documents\GitHub\GAMS-MIRO\Allocate\_sys_trace_allocate_miro3.trc
    InputDir1 C:\Users\hasee\Documents\GitHub\GAMS-MIRO\Allocate\
    TraceOpt 3
    ExecMode 0
    LstTitleLeftAligned 1
    IDCGDXInput _miro_gdxin_.gdx
    IDCGDXOutput _miro_gdxout_.gdx
GAMS 31.1.0   Copyright (C) 1987-2020 GAMS Development. All rights reserved
Licensee: Michael Ferris Research Group - Eval           G191008/0001AS-GEN
          UW-Madison Computer Sciences Dept.                         DCE244
          E:\31.1\gamslice.txt
          Evaluation license: Not for commercial or production use
--- Starting compilation
--- allocate_miro3.gms(17) 3 Mb
--- GDXin=C:\Users\hasee\Documents\GitHub\GAMS-MIRO\Allocate\_miro_gdxin_.gdx
--- allocate_miro3.gms(59) 3 Mb
--- GDXin=C:\Users\hasee\Documents\GitHub\GAMS-MIRO\Allocate\_miro_gdxin_.gdx
--- allocate_miro3.gms(75) 3 Mb
--- GDXin=C:\Users\hasee\Documents\GitHub\GAMS-MIRO\Allocate\_miro_gdxin_.gdx
--- allocate_miro3.gms(330) 3 Mb
--- Starting execution: elapsed 0:00:00.012
--- allocate_miro3.gms(282) 4 Mb
--- Generating MIP model vivak
--- allocate_miro3.gms(283) 4 Mb
---   206 rows  356 columns  961 non-zeroes
---   85 discrete-columns
--- Executing CPLEX: elapsed 0:00:00.054

IBM ILOG CPLEX   31.1.0 r55b6ce3 Released May 01, 2020 WEI x86 64bit/MS Window
--- GAMS/Cplex licensed for continuous and discrete problems.
Cplex 12.10.0.0

Reading data...
Starting Cplex...
Space for names approximately 0.01 Mb
Use option 'names no' to turn use of names off
Version identifier: 12.10.0.0 | 2019-11-26 | 843d4de2ae
CPXPARAM_Advance                                 0
CPXPARAM_Threads                                 1
CPXPARAM_Parallel                                1
CPXPARAM_MIP_Display                             4
CPXPARAM_Simplex_Limits_Iterations               2000000000
CPXPARAM_TimeLimit                               1000
CPXPARAM_Tune_TimeLimit                          200
CPXPARAM_MIP_Tolerances_AbsMIPGap                0
CPXPARAM_MIP_Tolerances_MIPGap                   0.001
CPXPARAM_WorkDir                                 "C:\Users\hasee\Documents\GitHub\GAMS-MIRO\Allocate\225a\"
Found incumbent of value 0.000000 after 0.00 sec. (0.01 ticks)
Tried aggregator 2 times.
MIP Presolve eliminated 55 rows and 103 columns.
MIP Presolve modified 14 coefficients.
Aggregator did 15 substitutions.
Reduced MIP has 136 rows, 238 columns, and 590 nonzeros.
Reduced MIP has 15 binaries, 70 generals, 0 SOSs, and 0 indicators.
Presolve time = 0.09 sec. (0.57 ticks)
Probing time = 0.02 sec. (0.06 ticks)
Tried aggregator 1 time.
Detecting symmetries...
MIP Presolve eliminated 9 rows and 30 columns.
Reduced MIP has 127 rows, 208 columns, and 530 nonzeros.
Reduced MIP has 15 binaries, 70 generals, 0 SOSs, and 0 indicators.
Presolve time = 0.01 sec. (0.38 ticks)
Probing time = 0.00 sec. (0.05 ticks)
Clique table members: 5.
MIP emphasis: balance optimality and feasibility.
MIP search method: dynamic search.
Parallel mode: none, using 1 thread.
Tried aggregator 1 time.
Aggregator did 80 substitutions.
Reduced LP has 47 rows, 128 columns, and 370 nonzeros.
Presolve time = 0.00 sec. (0.12 ticks)
Initializing dual steep norms . . .

Iteration log . . .
Iteration:     1   Dual objective     =        103230.699471
Iteration:    62   Dual objective     =         14291.719289
Initializing dual steep norms . . .
Root relaxation solution time = 0.11 sec. (0.68 ticks)

        Nodes                                         Cuts/
   Node  Left     Objective  IInf  Best Integer    Best Bound    ItCnt     Gap

*     0+    0                            0.0000   111953.4630              --- 
Found incumbent of value 0.000000 after 0.31 sec. (2.00 ticks)
      0     0    14256.5460    14        0.0000    14256.5460       92     --- 
*     0+    0                         8953.0496    14256.5460            59.24%
Found incumbent of value 8953.049600 after 0.33 sec. (2.56 ticks)
      0     0    13721.7045    14     8953.0496      Cuts: 61      126   53.26%
*     0+    0                         9995.8100    13721.7045            37.27%
Found incumbent of value 9995.809968 after 0.38 sec. (4.71 ticks)
      0     0    13578.0988    14     9995.8100      Cuts: 38      166   35.84%
      0     0    12975.9279    14     9995.8100      Cuts: 38      203   29.81%
      0     0    12957.7341    14     9995.8100      Cuts: 20      220   29.63%
*     0+    0                        11164.8483    12957.7341            16.06%
Found incumbent of value 11164.848256 after 0.39 sec. (9.72 ticks)
      0     0    12954.8352    14    11164.8483      Cuts: 13      232   16.03%
*     0+    0                        11167.0280    12954.8352            16.01%
Found incumbent of value 11167.028022 after 0.39 sec. (11.16 ticks)
      0     0    12952.6423    14    11167.0280      Cuts: 12      241   15.99%
      0     0    12952.0852    14    11167.0280   MIRcuts: 10      248   15.99%
      0     0    12947.2882    14    11167.0280    MIRcuts: 7      262   15.94%
      0     0    12947.2882    14    11167.0280       Cuts: 3      265   15.94%
Detecting symmetries...
      0     2    12947.2882    22    11167.0280    12947.1164      265   15.94%
Elapsed time = 0.42 sec. (20.78 ticks, tree = 0.01 MB, solutions = 5)
*    10+   10                        11392.0329    12931.4220            13.51%
Found incumbent of value 11392.032895 after 0.44 sec. (24.01 ticks)
*    10+   10                        11742.9273    12931.4220            10.12%
Found incumbent of value 11742.927295 after 0.44 sec. (25.36 ticks)
*    20+   18                        11857.0504    12931.4220             9.06%
Found incumbent of value 11857.050373 after 0.44 sec. (28.28 ticks)
*    30+   28                        11889.0119    12931.4220             8.77%
Found incumbent of value 11889.011941 after 0.45 sec. (30.15 ticks)
*    40    34      integral     0    11934.5869    12931.4220      688    8.35%
Found incumbent of value 11934.586881 after 0.45 sec. (31.87 ticks)
*    60+   43                        12109.1273    12796.7757             5.68%
                                                  Impl Bds: 2                  
Found incumbent of value 12109.127343 after 0.47 sec. (39.19 ticks)
*    70+   38                        12316.9876    12796.7757             3.90%
Found incumbent of value 12316.987607 after 0.47 sec. (42.23 ticks)
*   200+   93                        12329.5063    12739.1125             3.32%
                                                     Cuts: 11                  
Found incumbent of value 12329.506252 after 0.53 sec. (77.37 ticks)
*   450+   94                        12332.2264    12462.5337             1.06%
                                                      Cuts: 6                  
Found incumbent of value 12332.226357 after 0.63 sec. (125.67 ticks)

Implied bound cuts applied:  28
Flow cuts applied:  3
Mixed integer rounding cuts applied:  32
Lift and project cuts applied:  2
Gomory fractional cuts applied:  3

Root node processing (before b&c):
  Real time             =    0.42 sec. (20.81 ticks)
Sequential b&c:
  Real time             =    0.25 sec. (133.31 ticks)
                          ------------
Total (root+branch&cut) =    0.67 sec. (154.13 ticks)
MIP status(102): integer optimal, tolerance
Cplex Time: 0.67sec (det. 154.13 ticks)
Fixing integer variables, and solving final LP...
Version identifier: 12.10.0.0 | 2019-11-26 | 843d4de2ae
CPXPARAM_Advance                                 2
CPXPARAM_Threads                                 1
CPXPARAM_Parallel                                1
CPXPARAM_MIP_Display                             4
CPXPARAM_Simplex_Limits_Iterations               2000000000
CPXPARAM_TimeLimit                               1000
CPXPARAM_Tune_TimeLimit                          200
CPXPARAM_MIP_Tolerances_AbsMIPGap                0
CPXPARAM_MIP_Tolerances_MIPGap                   0.001
CPXPARAM_WorkDir                                 "C:\Users\hasee\Documents\GitHub\GAMS-MIRO\Allocate\225a\"
Tried aggregator 1 time.
LP Presolve eliminated 171 rows and 294 columns.
Aggregator did 10 substitutions.
Reduced LP has 25 rows, 52 columns, and 90 nonzeros.
Presolve time = 0.00 sec. (0.20 ticks)
Initializing dual steep norms . . .

Iteration log . . .
Iteration:     1   Dual objective     =         13038.385309
Fixed MIP status(1): optimal
Cplex Time: 0.00sec (det. 0.34 ticks)

Solution satisfies tolerances.

MIP Solution:        12332.226357    (5458 iterations, 683 nodes)
Final Solve:         12332.226357    (27 iterations)

Best possible:       12342.945091
Absolute gap:           10.718734
Relative gap:            0.000868

--- Restarting execution
--- allocate_miro3.gms(283) 2 Mb
--- Reading solution for model vivak
--- allocate_miro3.gms(330) 3 Mb
--- GDX File C:\Users\hasee\Documents\GitHub\GAMS-MIRO\Allocate\_miro_gdxout_.gdx
*** Status: Normal completion
--- Job allocate_miro3.gms Stop 08/05/20 16:43:55 elapsed 0:00:00.872
